c t wmc
c file mc2023_track2_062.cnf
p cnf 160 1286
-1 0
-81 0
21 0
-101 0
-67 0
147 0
1 81 21 101 0
-1 81 -21 101 0
1 -81 21 -101 0
-1 -81 -21 -101 0
1 81 4 84 0
-1 81 -4 84 0
1 -81 4 -84 0
-1 -81 -4 -84 0
1 81 67 147 0
-1 81 -67 147 0
1 -81 67 -147 0
-1 -81 -67 -147 0
1 81 44 124 0
-1 81 -44 124 0
1 -81 44 -124 0
-1 -81 -44 -124 0
1 81 10 90 0
-1 81 -10 90 0
1 -81 10 -90 0
-1 -81 -10 -90 0
1 81 46 126 0
-1 81 -46 126 0
1 -81 46 -126 0
-1 -81 -46 -126 0
1 81 71 151 0
-1 81 -71 151 0
1 -81 71 -151 0
-1 -81 -71 -151 0
1 81 17 97 0
-1 81 -17 97 0
1 -81 17 -97 0
-1 -81 -17 -97 0
2 82 70 150 0
-2 82 -70 150 0
2 -82 70 -150 0
-2 -82 -70 -150 0
2 82 63 143 0
-2 82 -63 143 0
2 -82 63 -143 0
-2 -82 -63 -143 0
2 82 6 86 0
-2 82 -6 86 0
2 -82 6 -86 0
-2 -82 -6 -86 0
2 82 73 153 0
-2 82 -73 153 0
2 -82 73 -153 0
-2 -82 -73 -153 0
2 82 25 105 0
-2 82 -25 105 0
2 -82 25 -105 0
-2 -82 -25 -105 0
2 82 23 103 0
-2 82 -23 103 0
2 -82 23 -103 0
-2 -82 -23 -103 0
2 82 56 136 0
-2 82 -56 136 0
2 -82 56 -136 0
-2 -82 -56 -136 0
2 82 17 97 0
-2 82 -17 97 0
2 -82 17 -97 0
-2 -82 -17 -97 0
3 83 67 147 0
-3 83 -67 147 0
3 -83 67 -147 0
-3 -83 -67 -147 0
3 83 48 128 0
-3 83 -48 128 0
3 -83 48 -128 0
-3 -83 -48 -128 0
3 83 43 123 0
-3 83 -43 123 0
3 -83 43 -123 0
-3 -83 -43 -123 0
3 83 67 147 0
-3 83 -67 147 0
3 -83 67 -147 0
-3 -83 -67 -147 0
3 83 15 95 0
-3 83 -15 95 0
3 -83 15 -95 0
-3 -83 -15 -95 0
3 83 57 137 0
-3 83 -57 137 0
3 -83 57 -137 0
-3 -83 -57 -137 0
3 83 35 115 0
-3 83 -35 115 0
3 -83 35 -115 0
-3 -83 -35 -115 0
3 83 50 130 0
-3 83 -50 130 0
3 -83 50 -130 0
-3 -83 -50 -130 0
4 84 46 126 0
-4 84 -46 126 0
4 -84 46 -126 0
-4 -84 -46 -126 0
4 84 49 129 0
-4 84 -49 129 0
4 -84 49 -129 0
-4 -84 -49 -129 0
4 84 15 95 0
-4 84 -15 95 0
4 -84 15 -95 0
-4 -84 -15 -95 0
4 84 41 121 0
-4 84 -41 121 0
4 -84 41 -121 0
-4 -84 -41 -121 0
4 84 23 103 0
-4 84 -23 103 0
4 -84 23 -103 0
-4 -84 -23 -103 0
4 84 36 116 0
-4 84 -36 116 0
4 -84 36 -116 0
-4 -84 -36 -116 0
4 84 75 155 0
-4 84 -75 155 0
4 -84 75 -155 0
-4 -84 -75 -155 0
5 85 47 127 0
-5 85 -47 127 0
5 -85 47 -127 0
-5 -85 -47 -127 0
5 85 63 143 0
-5 85 -63 143 0
5 -85 63 -143 0
-5 -85 -63 -143 0
5 85 39 119 0
-5 85 -39 119 0
5 -85 39 -119 0
-5 -85 -39 -119 0
5 85 19 99 0
-5 85 -19 99 0
5 -85 19 -99 0
-5 -85 -19 -99 0
5 85 57 137 0
-5 85 -57 137 0
5 -85 57 -137 0
-5 -85 -57 -137 0
5 85 37 117 0
-5 85 -37 117 0
5 -85 37 -117 0
-5 -85 -37 -117 0
5 85 10 90 0
-5 85 -10 90 0
5 -85 10 -90 0
-5 -85 -10 -90 0
5 85 45 125 0
-5 85 -45 125 0
5 -85 45 -125 0
-5 -85 -45 -125 0
6 86 34 114 0
-6 86 -34 114 0
6 -86 34 -114 0
-6 -86 -34 -114 0
6 86 16 96 0
-6 86 -16 96 0
6 -86 16 -96 0
-6 -86 -16 -96 0
6 86 65 145 0
-6 86 -65 145 0
6 -86 65 -145 0
-6 -86 -65 -145 0
6 86 22 102 0
-6 86 -22 102 0
6 -86 22 -102 0
-6 -86 -22 -102 0
6 86 78 158 0
-6 86 -78 158 0
6 -86 78 -158 0
-6 -86 -78 -158 0
6 86 17 97 0
-6 86 -17 97 0
6 -86 17 -97 0
-6 -86 -17 -97 0
6 86 56 136 0
-6 86 -56 136 0
6 -86 56 -136 0
-6 -86 -56 -136 0
7 87 30 110 0
-7 87 -30 110 0
7 -87 30 -110 0
-7 -87 -30 -110 0
7 87 37 117 0
-7 87 -37 117 0
7 -87 37 -117 0
-7 -87 -37 -117 0
7 87 39 119 0
-7 87 -39 119 0
7 -87 39 -119 0
-7 -87 -39 -119 0
7 87 23 103 0
-7 87 -23 103 0
7 -87 23 -103 0
-7 -87 -23 -103 0
7 87 71 151 0
-7 87 -71 151 0
7 -87 71 -151 0
-7 -87 -71 -151 0
7 87 28 108 0
-7 87 -28 108 0
7 -87 28 -108 0
-7 -87 -28 -108 0
7 87 23 103 0
-7 87 -23 103 0
7 -87 23 -103 0
-7 -87 -23 -103 0
7 87 54 134 0
-7 87 -54 134 0
7 -87 54 -134 0
-7 -87 -54 -134 0
8 88 73 153 0
-8 88 -73 153 0
8 -88 73 -153 0
-8 -88 -73 -153 0
8 88 51 131 0
-8 88 -51 131 0
8 -88 51 -131 0
-8 -88 -51 -131 0
8 88 64 144 0
-8 88 -64 144 0
8 -88 64 -144 0
-8 -88 -64 -144 0
8 88 64 144 0
-8 88 -64 144 0
8 -88 64 -144 0
-8 -88 -64 -144 0
8 88 35 115 0
-8 88 -35 115 0
8 -88 35 -115 0
-8 -88 -35 -115 0
8 88 9 89 0
-8 88 -9 89 0
8 -88 9 -89 0
-8 -88 -9 -89 0
8 88 31 111 0
-8 88 -31 111 0
8 -88 31 -111 0
-8 -88 -31 -111 0
8 88 41 121 0
-8 88 -41 121 0
8 -88 41 -121 0
-8 -88 -41 -121 0
9 89 48 128 0
-9 89 -48 128 0
9 -89 48 -128 0
-9 -89 -48 -128 0
9 89 56 136 0
-9 89 -56 136 0
9 -89 56 -136 0
-9 -89 -56 -136 0
9 89 29 109 0
-9 89 -29 109 0
9 -89 29 -109 0
-9 -89 -29 -109 0
9 89 65 145 0
-9 89 -65 145 0
9 -89 65 -145 0
-9 -89 -65 -145 0
9 89 67 147 0
-9 89 -67 147 0
9 -89 67 -147 0
-9 -89 -67 -147 0
9 89 36 116 0
-9 89 -36 116 0
9 -89 36 -116 0
-9 -89 -36 -116 0
9 89 79 159 0
-9 89 -79 159 0
9 -89 79 -159 0
-9 -89 -79 -159 0
10 90 42 122 0
-10 90 -42 122 0
10 -90 42 -122 0
-10 -90 -42 -122 0
10 90 53 133 0
-10 90 -53 133 0
10 -90 53 -133 0
-10 -90 -53 -133 0
10 90 67 147 0
-10 90 -67 147 0
10 -90 67 -147 0
-10 -90 -67 -147 0
10 90 60 140 0
-10 90 -60 140 0
10 -90 60 -140 0
-10 -90 -60 -140 0
10 90 36 116 0
-10 90 -36 116 0
10 -90 36 -116 0
-10 -90 -36 -116 0
10 90 42 122 0
-10 90 -42 122 0
10 -90 42 -122 0
-10 -90 -42 -122 0
11 91 33 113 0
-11 91 -33 113 0
11 -91 33 -113 0
-11 -91 -33 -113 0
11 91 18 98 0
-11 91 -18 98 0
11 -91 18 -98 0
-11 -91 -18 -98 0
11 91 69 149 0
-11 91 -69 149 0
11 -91 69 -149 0
-11 -91 -69 -149 0
11 91 55 135 0
-11 91 -55 135 0
11 -91 55 -135 0
-11 -91 -55 -135 0
11 91 46 126 0
-11 91 -46 126 0
11 -91 46 -126 0
-11 -91 -46 -126 0
11 91 78 158 0
-11 91 -78 158 0
11 -91 78 -158 0
-11 -91 -78 -158 0
11 91 49 129 0
-11 91 -49 129 0
11 -91 49 -129 0
-11 -91 -49 -129 0
11 91 73 153 0
-11 91 -73 153 0
11 -91 73 -153 0
-11 -91 -73 -153 0
12 92 48 128 0
-12 92 -48 128 0
12 -92 48 -128 0
-12 -92 -48 -128 0
12 92 53 133 0
-12 92 -53 133 0
12 -92 53 -133 0
-12 -92 -53 -133 0
12 92 33 113 0
-12 92 -33 113 0
12 -92 33 -113 0
-12 -92 -33 -113 0
12 92 49 129 0
-12 92 -49 129 0
12 -92 49 -129 0
-12 -92 -49 -129 0
12 92 80 160 0
-12 92 -80 160 0
12 -92 80 -160 0
-12 -92 -80 -160 0
12 92 18 98 0
-12 92 -18 98 0
12 -92 18 -98 0
-12 -92 -18 -98 0
12 92 30 110 0
-12 92 -30 110 0
12 -92 30 -110 0
-12 -92 -30 -110 0
12 92 80 160 0
-12 92 -80 160 0
12 -92 80 -160 0
-12 -92 -80 -160 0
13 93 74 154 0
-13 93 -74 154 0
13 -93 74 -154 0
-13 -93 -74 -154 0
13 93 56 136 0
-13 93 -56 136 0
13 -93 56 -136 0
-13 -93 -56 -136 0
13 93 18 98 0
-13 93 -18 98 0
13 -93 18 -98 0
-13 -93 -18 -98 0
13 93 80 160 0
-13 93 -80 160 0
13 -93 80 -160 0
-13 -93 -80 -160 0
13 93 75 155 0
-13 93 -75 155 0
13 -93 75 -155 0
-13 -93 -75 -155 0
13 93 54 134 0
-13 93 -54 134 0
13 -93 54 -134 0
-13 -93 -54 -134 0
13 93 19 99 0
-13 93 -19 99 0
13 -93 19 -99 0
-13 -93 -19 -99 0
13 93 25 105 0
-13 93 -25 105 0
13 -93 25 -105 0
-13 -93 -25 -105 0
14 94 39 119 0
-14 94 -39 119 0
14 -94 39 -119 0
-14 -94 -39 -119 0
14 94 62 142 0
-14 94 -62 142 0
14 -94 62 -142 0
-14 -94 -62 -142 0
14 94 73 153 0
-14 94 -73 153 0
14 -94 73 -153 0
-14 -94 -73 -153 0
14 94 20 100 0
-14 94 -20 100 0
14 -94 20 -100 0
-14 -94 -20 -100 0
14 94 60 140 0
-14 94 -60 140 0
14 -94 60 -140 0
-14 -94 -60 -140 0
14 94 21 101 0
-14 94 -21 101 0
14 -94 21 -101 0
-14 -94 -21 -101 0
14 94 46 126 0
-14 94 -46 126 0
14 -94 46 -126 0
-14 -94 -46 -126 0
14 94 59 139 0
-14 94 -59 139 0
14 -94 59 -139 0
-14 -94 -59 -139 0
15 95 31 111 0
-15 95 -31 111 0
15 -95 31 -111 0
-15 -95 -31 -111 0
15 95 59 139 0
-15 95 -59 139 0
15 -95 59 -139 0
-15 -95 -59 -139 0
15 95 18 98 0
-15 95 -18 98 0
15 -95 18 -98 0
-15 -95 -18 -98 0
15 95 47 127 0
-15 95 -47 127 0
15 -95 47 -127 0
-15 -95 -47 -127 0
15 95 23 103 0
-15 95 -23 103 0
15 -95 23 -103 0
-15 -95 -23 -103 0
15 95 26 106 0
-15 95 -26 106 0
15 -95 26 -106 0
-15 -95 -26 -106 0
16 96 77 157 0
-16 96 -77 157 0
16 -96 77 -157 0
-16 -96 -77 -157 0
16 96 69 149 0
-16 96 -69 149 0
16 -96 69 -149 0
-16 -96 -69 -149 0
16 96 79 159 0
-16 96 -79 159 0
16 -96 79 -159 0
-16 -96 -79 -159 0
16 96 66 146 0
-16 96 -66 146 0
16 -96 66 -146 0
-16 -96 -66 -146 0
16 96 49 129 0
-16 96 -49 129 0
16 -96 49 -129 0
-16 -96 -49 -129 0
16 96 38 118 0
-16 96 -38 118 0
16 -96 38 -118 0
-16 -96 -38 -118 0
16 96 76 156 0
-16 96 -76 156 0
16 -96 76 -156 0
-16 -96 -76 -156 0
17 97 47 127 0
-17 97 -47 127 0
17 -97 47 -127 0
-17 -97 -47 -127 0
17 97 35 115 0
-17 97 -35 115 0
17 -97 35 -115 0
-17 -97 -35 -115 0
17 97 65 145 0
-17 97 -65 145 0
17 -97 65 -145 0
-17 -97 -65 -145 0
17 97 52 132 0
-17 97 -52 132 0
17 -97 52 -132 0
-17 -97 -52 -132 0
17 97 71 151 0
-17 97 -71 151 0
17 -97 71 -151 0
-17 -97 -71 -151 0
18 98 53 133 0
-18 98 -53 133 0
18 -98 53 -133 0
-18 -98 -53 -133 0
18 98 59 139 0
-18 98 -59 139 0
18 -98 59 -139 0
-18 -98 -59 -139 0
18 98 70 150 0
-18 98 -70 150 0
18 -98 70 -150 0
-18 -98 -70 -150 0
18 98 79 159 0
-18 98 -79 159 0
18 -98 79 -159 0
-18 -98 -79 -159 0
19 99 54 134 0
-19 99 -54 134 0
19 -99 54 -134 0
-19 -99 -54 -134 0
19 99 38 118 0
-19 99 -38 118 0
19 -99 38 -118 0
-19 -99 -38 -118 0
19 99 52 132 0
-19 99 -52 132 0
19 -99 52 -132 0
-19 -99 -52 -132 0
19 99 48 128 0
-19 99 -48 128 0
19 -99 48 -128 0
-19 -99 -48 -128 0
19 99 66 146 0
-19 99 -66 146 0
19 -99 66 -146 0
-19 -99 -66 -146 0
19 99 32 112 0
-19 99 -32 112 0
19 -99 32 -112 0
-19 -99 -32 -112 0
20 100 32 112 0
-20 100 -32 112 0
20 -100 32 -112 0
-20 -100 -32 -112 0
20 100 76 156 0
-20 100 -76 156 0
20 -100 76 -156 0
-20 -100 -76 -156 0
20 100 35 115 0
-20 100 -35 115 0
20 -100 35 -115 0
-20 -100 -35 -115 0
20 100 40 120 0
-20 100 -40 120 0
20 -100 40 -120 0
-20 -100 -40 -120 0
20 100 44 124 0
-20 100 -44 124 0
20 -100 44 -124 0
-20 -100 -44 -124 0
20 100 62 142 0
-20 100 -62 142 0
20 -100 62 -142 0
-20 -100 -62 -142 0
20 100 21 101 0
-20 100 -21 101 0
20 -100 21 -101 0
-20 -100 -21 -101 0
21 101 66 146 0
-21 101 -66 146 0
21 -101 66 -146 0
-21 -101 -66 -146 0
21 101 26 106 0
-21 101 -26 106 0
21 -101 26 -106 0
-21 -101 -26 -106 0
21 101 58 138 0
-21 101 -58 138 0
21 -101 58 -138 0
-21 -101 -58 -138 0
21 101 40 120 0
-21 101 -40 120 0
21 -101 40 -120 0
-21 -101 -40 -120 0
21 101 67 147 0
-21 101 -67 147 0
21 -101 67 -147 0
-21 -101 -67 -147 0
22 102 52 132 0
-22 102 -52 132 0
22 -102 52 -132 0
-22 -102 -52 -132 0
22 102 43 123 0
-22 102 -43 123 0
22 -102 43 -123 0
-22 -102 -43 -123 0
22 102 55 135 0
-22 102 -55 135 0
22 -102 55 -135 0
-22 -102 -55 -135 0
22 102 75 155 0
-22 102 -75 155 0
22 -102 75 -155 0
-22 -102 -75 -155 0
22 102 24 104 0
-22 102 -24 104 0
22 -102 24 -104 0
-22 -102 -24 -104 0
22 102 57 137 0
-22 102 -57 137 0
22 -102 57 -137 0
-22 -102 -57 -137 0
22 102 26 106 0
-22 102 -26 106 0
22 -102 26 -106 0
-22 -102 -26 -106 0
23 103 52 132 0
-23 103 -52 132 0
23 -103 52 -132 0
-23 -103 -52 -132 0
23 103 59 139 0
-23 103 -59 139 0
23 -103 59 -139 0
-23 -103 -59 -139 0
23 103 72 152 0
-23 103 -72 152 0
23 -103 72 -152 0
-23 -103 -72 -152 0
24 104 61 141 0
-24 104 -61 141 0
24 -104 61 -141 0
-24 -104 -61 -141 0
24 104 72 152 0
-24 104 -72 152 0
24 -104 72 -152 0
-24 -104 -72 -152 0
24 104 63 143 0
-24 104 -63 143 0
24 -104 63 -143 0
-24 -104 -63 -143 0
24 104 37 117 0
-24 104 -37 117 0
24 -104 37 -117 0
-24 -104 -37 -117 0
24 104 62 142 0
-24 104 -62 142 0
24 -104 62 -142 0
-24 -104 -62 -142 0
24 104 80 160 0
-24 104 -80 160 0
24 -104 80 -160 0
-24 -104 -80 -160 0
24 104 27 107 0
-24 104 -27 107 0
24 -104 27 -107 0
-24 -104 -27 -107 0
25 105 39 119 0
-25 105 -39 119 0
25 -105 39 -119 0
-25 -105 -39 -119 0
25 105 29 109 0
-25 105 -29 109 0
25 -105 29 -109 0
-25 -105 -29 -109 0
25 105 43 123 0
-25 105 -43 123 0
25 -105 43 -123 0
-25 -105 -43 -123 0
25 105 67 147 0
-25 105 -67 147 0
25 -105 67 -147 0
-25 -105 -67 -147 0
25 105 29 109 0
-25 105 -29 109 0
25 -105 29 -109 0
-25 -105 -29 -109 0
25 105 69 149 0
-25 105 -69 149 0
25 -105 69 -149 0
-25 -105 -69 -149 0
26 106 53 133 0
-26 106 -53 133 0
26 -106 53 -133 0
-26 -106 -53 -133 0
26 106 68 148 0
-26 106 -68 148 0
26 -106 68 -148 0
-26 -106 -68 -148 0
26 106 36 116 0
-26 106 -36 116 0
26 -106 36 -116 0
-26 -106 -36 -116 0
26 106 37 117 0
-26 106 -37 117 0
26 -106 37 -117 0
-26 -106 -37 -117 0
26 106 62 142 0
-26 106 -62 142 0
26 -106 62 -142 0
-26 -106 -62 -142 0
27 107 56 136 0
-27 107 -56 136 0
27 -107 56 -136 0
-27 -107 -56 -136 0
27 107 57 137 0
-27 107 -57 137 0
27 -107 57 -137 0
-27 -107 -57 -137 0
27 107 29 109 0
-27 107 -29 109 0
27 -107 29 -109 0
-27 -107 -29 -109 0
27 107 58 138 0
-27 107 -58 138 0
27 -107 58 -138 0
-27 -107 -58 -138 0
27 107 60 140 0
-27 107 -60 140 0
27 -107 60 -140 0
-27 -107 -60 -140 0
27 107 79 159 0
-27 107 -79 159 0
27 -107 79 -159 0
-27 -107 -79 -159 0
27 107 74 154 0
-27 107 -74 154 0
27 -107 74 -154 0
-27 -107 -74 -154 0
28 108 50 130 0
-28 108 -50 130 0
28 -108 50 -130 0
-28 -108 -50 -130 0
28 108 75 155 0
-28 108 -75 155 0
28 -108 75 -155 0
-28 -108 -75 -155 0
28 108 77 157 0
-28 108 -77 157 0
28 -108 77 -157 0
-28 -108 -77 -157 0
28 108 47 127 0
-28 108 -47 127 0
28 -108 47 -127 0
-28 -108 -47 -127 0
28 108 61 141 0
-28 108 -61 141 0
28 -108 61 -141 0
-28 -108 -61 -141 0
28 108 62 142 0
-28 108 -62 142 0
28 -108 62 -142 0
-28 -108 -62 -142 0
28 108 64 144 0
-28 108 -64 144 0
28 -108 64 -144 0
-28 -108 -64 -144 0
29 109 38 118 0
-29 109 -38 118 0
29 -109 38 -118 0
-29 -109 -38 -118 0
29 109 30 110 0
-29 109 -30 110 0
29 -109 30 -110 0
-29 -109 -30 -110 0
29 109 63 143 0
-29 109 -63 143 0
29 -109 63 -143 0
-29 -109 -63 -143 0
29 109 67 147 0
-29 109 -67 147 0
29 -109 67 -147 0
-29 -109 -67 -147 0
30 110 32 112 0
-30 110 -32 112 0
30 -110 32 -112 0
-30 -110 -32 -112 0
30 110 42 122 0
-30 110 -42 122 0
30 -110 42 -122 0
-30 -110 -42 -122 0
30 110 74 154 0
-30 110 -74 154 0
30 -110 74 -154 0
-30 -110 -74 -154 0
30 110 54 134 0
-30 110 -54 134 0
30 -110 54 -134 0
-30 -110 -54 -134 0
30 110 75 155 0
-30 110 -75 155 0
30 -110 75 -155 0
-30 -110 -75 -155 0
31 111 66 146 0
-31 111 -66 146 0
31 -111 66 -146 0
-31 -111 -66 -146 0
31 111 49 129 0
-31 111 -49 129 0
31 -111 49 -129 0
-31 -111 -49 -129 0
31 111 66 146 0
-31 111 -66 146 0
31 -111 66 -146 0
-31 -111 -66 -146 0
31 111 38 118 0
-31 111 -38 118 0
31 -111 38 -118 0
-31 -111 -38 -118 0
31 111 64 144 0
-31 111 -64 144 0
31 -111 64 -144 0
-31 -111 -64 -144 0
31 111 45 125 0
-31 111 -45 125 0
31 -111 45 -125 0
-31 -111 -45 -125 0
32 112 47 127 0
-32 112 -47 127 0
32 -112 47 -127 0
-32 -112 -47 -127 0
32 112 68 148 0
-32 112 -68 148 0
32 -112 68 -148 0
-32 -112 -68 -148 0
32 112 39 119 0
-32 112 -39 119 0
32 -112 39 -119 0
-32 -112 -39 -119 0
32 112 46 126 0
-32 112 -46 126 0
32 -112 46 -126 0
-32 -112 -46 -126 0
32 112 50 130 0
-32 112 -50 130 0
32 -112 50 -130 0
-32 -112 -50 -130 0
33 113 36 116 0
-33 113 -36 116 0
33 -113 36 -116 0
-33 -113 -36 -116 0
33 113 69 149 0
-33 113 -69 149 0
33 -113 69 -149 0
-33 -113 -69 -149 0
33 113 52 132 0
-33 113 -52 132 0
33 -113 52 -132 0
-33 -113 -52 -132 0
33 113 61 141 0
-33 113 -61 141 0
33 -113 61 -141 0
-33 -113 -61 -141 0
33 113 72 152 0
-33 113 -72 152 0
33 -113 72 -152 0
-33 -113 -72 -152 0
33 113 78 158 0
-33 113 -78 158 0
33 -113 78 -158 0
-33 -113 -78 -158 0
34 114 55 135 0
-34 114 -55 135 0
34 -114 55 -135 0
-34 -114 -55 -135 0
34 114 41 121 0
-34 114 -41 121 0
34 -114 41 -121 0
-34 -114 -41 -121 0
34 114 40 120 0
-34 114 -40 120 0
34 -114 40 -120 0
-34 -114 -40 -120 0
34 114 79 159 0
-34 114 -79 159 0
34 -114 79 -159 0
-34 -114 -79 -159 0
34 114 44 124 0
-34 114 -44 124 0
34 -114 44 -124 0
-34 -114 -44 -124 0
34 114 55 135 0
-34 114 -55 135 0
34 -114 55 -135 0
-34 -114 -55 -135 0
34 114 55 135 0
-34 114 -55 135 0
34 -114 55 -135 0
-34 -114 -55 -135 0
35 115 56 136 0
-35 115 -56 136 0
35 -115 56 -136 0
-35 -115 -56 -136 0
35 115 71 151 0
-35 115 -71 151 0
35 -115 71 -151 0
-35 -115 -71 -151 0
35 115 78 158 0
-35 115 -78 158 0
35 -115 78 -158 0
-35 -115 -78 -158 0
35 115 66 146 0
-35 115 -66 146 0
35 -115 66 -146 0
-35 -115 -66 -146 0
36 116 46 126 0
-36 116 -46 126 0
36 -116 46 -126 0
-36 -116 -46 -126 0
36 116 80 160 0
-36 116 -80 160 0
36 -116 80 -160 0
-36 -116 -80 -160 0
36 116 43 123 0
-36 116 -43 123 0
36 -116 43 -123 0
-36 -116 -43 -123 0
37 117 79 159 0
-37 117 -79 159 0
37 -117 79 -159 0
-37 -117 -79 -159 0
37 117 63 143 0
-37 117 -63 143 0
37 -117 63 -143 0
-37 -117 -63 -143 0
37 117 62 142 0
-37 117 -62 142 0
37 -117 62 -142 0
-37 -117 -62 -142 0
37 117 64 144 0
-37 117 -64 144 0
37 -117 64 -144 0
-37 -117 -64 -144 0
38 118 56 136 0
-38 118 -56 136 0
38 -118 56 -136 0
-38 -118 -56 -136 0
38 118 58 138 0
-38 118 -58 138 0
38 -118 58 -138 0
-38 -118 -58 -138 0
38 118 47 127 0
-38 118 -47 127 0
38 -118 47 -127 0
-38 -118 -47 -127 0
38 118 56 136 0
-38 118 -56 136 0
38 -118 56 -136 0
-38 -118 -56 -136 0
39 119 40 120 0
-39 119 -40 120 0
39 -119 40 -120 0
-39 -119 -40 -120 0
39 119 61 141 0
-39 119 -61 141 0
39 -119 61 -141 0
-39 -119 -61 -141 0
39 119 43 123 0
-39 119 -43 123 0
39 -119 43 -123 0
-39 -119 -43 -123 0
40 120 76 156 0
-40 120 -76 156 0
40 -120 76 -156 0
-40 -120 -76 -156 0
40 120 77 157 0
-40 120 -77 157 0
40 -120 77 -157 0
-40 -120 -77 -157 0
40 120 41 121 0
-40 120 -41 121 0
40 -120 41 -121 0
-40 -120 -41 -121 0
40 120 51 131 0
-40 120 -51 131 0
40 -120 51 -131 0
-40 -120 -51 -131 0
41 121 51 131 0
-41 121 -51 131 0
41 -121 51 -131 0
-41 -121 -51 -131 0
41 121 59 139 0
-41 121 -59 139 0
41 -121 59 -139 0
-41 -121 -59 -139 0
41 121 74 154 0
-41 121 -74 154 0
41 -121 74 -154 0
-41 -121 -74 -154 0
41 121 54 134 0
-41 121 -54 134 0
41 -121 54 -134 0
-41 -121 -54 -134 0
42 122 65 145 0
-42 122 -65 145 0
42 -122 65 -145 0
-42 -122 -65 -145 0
42 122 77 157 0
-42 122 -77 157 0
42 -122 77 -157 0
-42 -122 -77 -157 0
42 122 44 124 0
-42 122 -44 124 0
42 -122 44 -124 0
-42 -122 -44 -124 0
42 122 48 128 0
-42 122 -48 128 0
42 -122 48 -128 0
-42 -122 -48 -128 0
42 122 68 148 0
-42 122 -68 148 0
42 -122 68 -148 0
-42 -122 -68 -148 0
43 123 58 138 0
-43 123 -58 138 0
43 -123 58 -138 0
-43 -123 -58 -138 0
43 123 47 127 0
-43 123 -47 127 0
43 -123 47 -127 0
-43 -123 -47 -127 0
43 123 65 145 0
-43 123 -65 145 0
43 -123 65 -145 0
-43 -123 -65 -145 0
44 124 59 139 0
-44 124 -59 139 0
44 -124 59 -139 0
-44 -124 -59 -139 0
44 124 76 156 0
-44 124 -76 156 0
44 -124 76 -156 0
-44 -124 -76 -156 0
44 124 77 157 0
-44 124 -77 157 0
44 -124 77 -157 0
-44 -124 -77 -157 0
44 124 58 138 0
-44 124 -58 138 0
44 -124 58 -138 0
-44 -124 -58 -138 0
45 125 59 139 0
-45 125 -59 139 0
45 -125 59 -139 0
-45 -125 -59 -139 0
45 125 80 160 0
-45 125 -80 160 0
45 -125 80 -160 0
-45 -125 -80 -160 0
45 125 70 150 0
-45 125 -70 150 0
45 -125 70 -150 0
-45 -125 -70 -150 0
45 125 72 152 0
-45 125 -72 152 0
45 -125 72 -152 0
-45 -125 -72 -152 0
45 125 64 144 0
-45 125 -64 144 0
45 -125 64 -144 0
-45 -125 -64 -144 0
45 125 68 148 0
-45 125 -68 148 0
45 -125 68 -148 0
-45 -125 -68 -148 0
46 126 77 157 0
-46 126 -77 157 0
46 -126 77 -157 0
-46 -126 -77 -157 0
46 126 68 148 0
-46 126 -68 148 0
46 -126 68 -148 0
-46 -126 -68 -148 0
47 127 60 140 0
-47 127 -60 140 0
47 -127 60 -140 0
-47 -127 -60 -140 0
48 128 55 135 0
-48 128 -55 135 0
48 -128 55 -135 0
-48 -128 -55 -135 0
48 128 72 152 0
-48 128 -72 152 0
48 -128 72 -152 0
-48 -128 -72 -152 0
48 128 70 150 0
-48 128 -70 150 0
48 -128 70 -150 0
-48 -128 -70 -150 0
49 129 74 154 0
-49 129 -74 154 0
49 -129 74 -154 0
-49 -129 -74 -154 0
49 129 79 159 0
-49 129 -79 159 0
49 -129 79 -159 0
-49 -129 -79 -159 0
49 129 77 157 0
-49 129 -77 157 0
49 -129 77 -157 0
-49 -129 -77 -157 0
50 130 60 140 0
-50 130 -60 140 0
50 -130 60 -140 0
-50 -130 -60 -140 0
50 130 59 139 0
-50 130 -59 139 0
50 -130 59 -139 0
-50 -130 -59 -139 0
50 130 52 132 0
-50 130 -52 132 0
50 -130 52 -132 0
-50 -130 -52 -132 0
50 130 54 134 0
-50 130 -54 134 0
50 -130 54 -134 0
-50 -130 -54 -134 0
50 130 70 150 0
-50 130 -70 150 0
50 -130 70 -150 0
-50 -130 -70 -150 0
51 131 76 156 0
-51 131 -76 156 0
51 -131 76 -156 0
-51 -131 -76 -156 0
51 131 74 154 0
-51 131 -74 154 0
51 -131 74 -154 0
-51 -131 -74 -154 0
51 131 52 132 0
-51 131 -52 132 0
51 -131 52 -132 0
-51 -131 -52 -132 0
51 131 74 154 0
-51 131 -74 154 0
51 -131 74 -154 0
-51 -131 -74 -154 0
51 131 57 137 0
-51 131 -57 137 0
51 -131 57 -137 0
-51 -131 -57 -137 0
52 132 78 158 0
-52 132 -78 158 0
52 -132 78 -158 0
-52 -132 -78 -158 0
53 133 70 150 0
-53 133 -70 150 0
53 -133 70 -150 0
-53 -133 -70 -150 0
53 133 71 151 0
-53 133 -71 151 0
53 -133 71 -151 0
-53 -133 -71 -151 0
53 133 60 140 0
-53 133 -60 140 0
53 -133 60 -140 0
-53 -133 -60 -140 0
53 133 71 151 0
-53 133 -71 151 0
53 -133 71 -151 0
-53 -133 -71 -151 0
54 134 60 140 0
-54 134 -60 140 0
54 -134 60 -140 0
-54 -134 -60 -140 0
54 134 71 151 0
-54 134 -71 151 0
54 -134 71 -151 0
-54 -134 -71 -151 0
55 135 63 143 0
-55 135 -63 143 0
55 -135 63 -143 0
-55 -135 -63 -143 0
55 135 71 151 0
-55 135 -71 151 0
55 -135 71 -151 0
-55 -135 -71 -151 0
57 137 63 143 0
-57 137 -63 143 0
57 -137 63 -143 0
-57 -137 -63 -143 0
57 137 63 143 0
-57 137 -63 143 0
57 -137 63 -143 0
-57 -137 -63 -143 0
57 137 74 154 0
-57 137 -74 154 0
57 -137 74 -154 0
-57 -137 -74 -154 0
58 138 78 158 0
-58 138 -78 158 0
58 -138 78 -158 0
-58 -138 -78 -158 0
58 138 61 141 0
-58 138 -61 141 0
58 -138 61 -141 0
-58 -138 -61 -141 0
58 138 79 159 0
-58 138 -79 159 0
58 -138 79 -159 0
-58 -138 -79 -159 0
60 140 80 160 0
-60 140 -80 160 0
60 -140 80 -160 0
-60 -140 -80 -160 0
61 141 66 146 0
-61 141 -66 146 0
61 -141 66 -146 0
-61 -141 -66 -146 0
61 141 76 156 0
-61 141 -76 156 0
61 -141 76 -156 0
-61 -141 -76 -156 0
61 141 75 155 0
-61 141 -75 155 0
61 -141 75 -155 0
-61 -141 -75 -155 0
62 142 72 152 0
-62 142 -72 152 0
62 -142 72 -152 0
-62 -142 -72 -152 0
62 142 73 153 0
-62 142 -73 153 0
62 -142 73 -153 0
-62 -142 -73 -153 0
64 144 80 160 0
-64 144 -80 160 0
64 -144 80 -160 0
-64 -144 -80 -160 0
64 144 65 145 0
-64 144 -65 145 0
64 -144 65 -145 0
-64 -144 -65 -145 0
65 145 73 153 0
-65 145 -73 153 0
65 -145 73 -153 0
-65 -145 -73 -153 0
65 145 75 155 0
-65 145 -75 155 0
65 -145 75 -155 0
-65 -145 -75 -155 0
66 146 68 148 0
-66 146 -68 148 0
66 -146 68 -148 0
-66 -146 -68 -148 0
68 148 69 149 0
-68 148 -69 149 0
68 -148 69 -149 0
-68 -148 -69 -149 0
68 148 70 150 0
-68 148 -70 150 0
68 -148 70 -150 0
-68 -148 -70 -150 0
69 149 70 150 0
-69 149 -70 150 0
69 -149 70 -150 0
-69 -149 -70 -150 0
69 149 77 157 0
-69 149 -77 157 0
69 -149 77 -157 0
-69 -149 -77 -157 0
69 149 72 152 0
-69 149 -72 152 0
69 -149 72 -152 0
-69 -149 -72 -152 0
72 152 76 156 0
-72 152 -76 156 0
72 -152 76 -156 0
-72 -152 -76 -156 0
73 153 78 158 0
-73 153 -78 158 0
73 -153 78 -158 0
-73 -153 -78 -158 0
73 153 75 155 0
-73 153 -75 155 0
73 -153 75 -155 0
-73 -153 -75 -155 0
76 156 78 158 0
-76 156 -78 158 0
76 -156 78 -158 0
-76 -156 -78 -158 0
c p weight 48 0.68901077 0
c p weight -48 0.31098923 0
c p weight 116 0.51575266 0
c p weight -116 0.48424734 0
c p weight 68 0.52008040 0
c p weight -68 0.47991960 0
c p weight 45 0.69897908 0
c p weight -45 0.30102092 0
c p weight 1 1 0
c p weight -1 1 0
c p weight 2 1 0
c p weight -2 1 0
c p weight 3 1 0
c p weight -3 1 0
c p weight 4 1 0
c p weight -4 1 0
c p weight 5 1 0
c p weight -5 1 0
c p weight 6 1 0
c p weight -6 1 0
c p weight 7 1 0
c p weight -7 1 0
c p weight 8 1 0
c p weight -8 1 0
c p weight 9 1 0
c p weight -9 1 0
c p weight 10 1 0
c p weight -10 1 0
c p weight 11 1 0
c p weight -11 1 0
c p weight 12 1 0
c p weight -12 1 0
c p weight 13 1 0
c p weight -13 1 0
c p weight 14 1 0
c p weight -14 1 0
c p weight 15 1 0
c p weight -15 1 0
c p weight 16 1 0
c p weight -16 1 0
c p weight 17 1 0
c p weight -17 1 0
c p weight 18 1 0
c p weight -18 1 0
c p weight 19 1 0
c p weight -19 1 0
c p weight 20 1 0
c p weight -20 1 0
c p weight 21 1 0
c p weight -21 1 0
c p weight 22 1 0
c p weight -22 1 0
c p weight 23 1 0
c p weight -23 1 0
c p weight 24 1 0
c p weight -24 1 0
c p weight 25 1 0
c p weight -25 1 0
c p weight 26 1 0
c p weight -26 1 0
c p weight 27 1 0
c p weight -27 1 0
c p weight 28 1 0
c p weight -28 1 0
c p weight 29 1 0
c p weight -29 1 0
c p weight 30 1 0
c p weight -30 1 0
c p weight 31 1 0
c p weight -31 1 0
c p weight 32 1 0
c p weight -32 1 0
c p weight 33 1 0
c p weight -33 1 0
c p weight 34 1 0
c p weight -34 1 0
c p weight 35 1 0
c p weight -35 1 0
c p weight 36 1 0
c p weight -36 1 0
c p weight 37 1 0
c p weight -37 1 0
c p weight 38 1 0
c p weight -38 1 0
c p weight 39 1 0
c p weight -39 1 0
c p weight 40 1 0
c p weight -40 1 0
c p weight 41 1 0
c p weight -41 1 0
c p weight 42 1 0
c p weight -42 1 0
c p weight 43 1 0
c p weight -43 1 0
c p weight 44 1 0
c p weight -44 1 0
c p weight 46 1 0
c p weight -46 1 0
c p weight 47 1 0
c p weight -47 1 0
c p weight 49 1 0
c p weight -49 1 0
c p weight 50 1 0
c p weight -50 1 0
c p weight 51 1 0
c p weight -51 1 0
c p weight 52 1 0
c p weight -52 1 0
c p weight 53 1 0
c p weight -53 1 0
c p weight 54 1 0
c p weight -54 1 0
c p weight 55 1 0
c p weight -55 1 0
c p weight 56 1 0
c p weight -56 1 0
c p weight 57 1 0
c p weight -57 1 0
c p weight 58 1 0
c p weight -58 1 0
c p weight 59 1 0
c p weight -59 1 0
c p weight 60 1 0
c p weight -60 1 0
c p weight 61 1 0
c p weight -61 1 0
c p weight 62 1 0
c p weight -62 1 0
c p weight 63 1 0
c p weight -63 1 0
c p weight 64 1 0
c p weight -64 1 0
c p weight 65 1 0
c p weight -65 1 0
c p weight 66 1 0
c p weight -66 1 0
c p weight 67 1 0
c p weight -67 1 0
c p weight 69 1 0
c p weight -69 1 0
c p weight 70 1 0
c p weight -70 1 0
c p weight 71 1 0
c p weight -71 1 0
c p weight 72 1 0
c p weight -72 1 0
c p weight 73 1 0
c p weight -73 1 0
c p weight 74 1 0
c p weight -74 1 0
c p weight 75 1 0
c p weight -75 1 0
c p weight 76 1 0
c p weight -76 1 0
c p weight 77 1 0
c p weight -77 1 0
c p weight 78 1 0
c p weight -78 1 0
c p weight 79 1 0
c p weight -79 1 0
c p weight 80 1 0
c p weight -80 1 0
c p weight 81 1 0
c p weight -81 1 0
c p weight 82 1 0
c p weight -82 1 0
c p weight 83 1 0
c p weight -83 1 0
c p weight 84 1 0
c p weight -84 1 0
c p weight 85 1 0
c p weight -85 1 0
c p weight 86 1 0
c p weight -86 1 0
c p weight 87 1 0
c p weight -87 1 0
c p weight 88 1 0
c p weight -88 1 0
c p weight 89 1 0
c p weight -89 1 0
c p weight 90 1 0
c p weight -90 1 0
c p weight 91 1 0
c p weight -91 1 0
c p weight 92 1 0
c p weight -92 1 0
c p weight 93 1 0
c p weight -93 1 0
c p weight 94 1 0
c p weight -94 1 0
c p weight 95 1 0
c p weight -95 1 0
c p weight 96 1 0
c p weight -96 1 0
c p weight 97 1 0
c p weight -97 1 0
c p weight 98 1 0
c p weight -98 1 0
c p weight 99 1 0
c p weight -99 1 0
c p weight 100 1 0
c p weight -100 1 0
c p weight 101 1 0
c p weight -101 1 0
c p weight 102 1 0
c p weight -102 1 0
c p weight 103 1 0
c p weight -103 1 0
c p weight 104 1 0
c p weight -104 1 0
c p weight 105 1 0
c p weight -105 1 0
c p weight 106 1 0
c p weight -106 1 0
c p weight 107 1 0
c p weight -107 1 0
c p weight 108 1 0
c p weight -108 1 0
c p weight 109 1 0
c p weight -109 1 0
c p weight 110 1 0
c p weight -110 1 0
c p weight 111 1 0
c p weight -111 1 0
c p weight 112 1 0
c p weight -112 1 0
c p weight 113 1 0
c p weight -113 1 0
c p weight 114 1 0
c p weight -114 1 0
c p weight 115 1 0
c p weight -115 1 0
c p weight 117 1 0
c p weight -117 1 0
c p weight 118 1 0
c p weight -118 1 0
c p weight 119 1 0
c p weight -119 1 0
c p weight 120 1 0
c p weight -120 1 0
c p weight 121 1 0
c p weight -121 1 0
c p weight 122 1 0
c p weight -122 1 0
c p weight 123 1 0
c p weight -123 1 0
c p weight 124 1 0
c p weight -124 1 0
c p weight 125 1 0
c p weight -125 1 0
c p weight 126 1 0
c p weight -126 1 0
c p weight 127 1 0
c p weight -127 1 0
c p weight 128 1 0
c p weight -128 1 0
c p weight 129 1 0
c p weight -129 1 0
c p weight 130 1 0
c p weight -130 1 0
c p weight 131 1 0
c p weight -131 1 0
c p weight 132 1 0
c p weight -132 1 0
c p weight 133 1 0
c p weight -133 1 0
c p weight 134 1 0
c p weight -134 1 0
c p weight 135 1 0
c p weight -135 1 0
c p weight 136 1 0
c p weight -136 1 0
c p weight 137 1 0
c p weight -137 1 0
c p weight 138 1 0
c p weight -138 1 0
c p weight 139 1 0
c p weight -139 1 0
c p weight 140 1 0
c p weight -140 1 0
c p weight 141 1 0
c p weight -141 1 0
c p weight 142 1 0
c p weight -142 1 0
c p weight 143 1 0
c p weight -143 1 0
c p weight 144 1 0
c p weight -144 1 0
c p weight 145 1 0
c p weight -145 1 0
c p weight 146 1 0
c p weight -146 1 0
c p weight 147 1 0
c p weight -147 1 0
c p weight 148 1 0
c p weight -148 1 0
c p weight 149 1 0
c p weight -149 1 0
c p weight 150 1 0
c p weight -150 1 0
c p weight 151 1 0
c p weight -151 1 0
c p weight 152 1 0
c p weight -152 1 0
c p weight 153 1 0
c p weight -153 1 0
c p weight 154 1 0
c p weight -154 1 0
c p weight 155 1 0
c p weight -155 1 0
c p weight 156 1 0
c p weight -156 1 0
c p weight 157 1 0
c p weight -157 1 0
c p weight 158 1 0
c p weight -158 1 0
c p weight 159 1 0
c p weight -159 1 0
c p weight 160 1 0
c p weight -160 1 0
